p cnf 40 114
1 2 0
-1 -2 0
3 4 5 0
-3 -4 0
-3 -5 0
-4 -5 0
6 7 8 9 0
-6 -7 0
-6 -8 0
-6 -9 0
-7 -8 0
-7 -9 0
-8 -9 0
10 11 0
-10 -11 0
12 13 0
-12 -13 0
14 15 0
-14 -15 0
16 17 18 19 0
-16 -17 0
-16 -18 0
-16 -19 0
-17 -18 0
-17 -19 0
-18 -19 0
20 21 22 0
-20 -21 0
-20 -22 0
-21 -22 0
23 24 25 26 0
-23 -24 0
-23 -25 0
-23 -26 0
-24 -25 0
-24 -26 0
-25 -26 0
27 28 0
-27 -28 0
29 30 0
-29 -30 0
31 32 0
-31 -32 0
33 34 35 36 0
-33 -34 0
-33 -35 0
-33 -36 0
-34 -35 0
-34 -36 0
-35 -36 0
37 38 0
-37 -38 0
39 40 0
-39 -40 0
-1 -10 0
-2 -18 0
-2 -25 0
-1 -34 0
-2 -35 0
-1 -37 0
-4 -20 0
-5 -21 0
-3 -23 0
-4 -24 0
-5 -25 0
-4 -31 0
-7 -10 0
-9 -11 0
-8 -20 0
-9 -22 0
-6 -27 0
-9 -28 0
-8 -31 0
-9 -32 0
-6 -39 0
-11 -13 0
-10 -14 0
-11 -15 0
-11 -22 0
-10 -34 0
-11 -36 0
-13 -15 0
-12 -18 0
-13 -19 0
-12 -25 0
-13 -26 0
-13 -30 0
-15 -30 0
-14 -34 0
-15 -36 0
-17 -20 0
-18 -21 0
-19 -22 0
-16 -27 0
-19 -28 0
-17 -29 0
-19 -30 0
-17 -31 0
-19 -32 0
-17 -38 0
-22 -28 0
-21 -35 0
-22 -36 0
-24 -29 0
-26 -30 0
-23 -33 0
-25 -35 0
-26 -36 0
-24 -38 0
-29 -31 0
-30 -32 0
-31 -38 0
-33 -39 0
-35 -40 0
